26
1 0 36
2 0 31
2 1 39
3 0 47
3 1 46
3 2 47
4 0 50
4 1 52
4 2 31
4 3 5
5 0 49
5 1 11
5 2 32
5 3 35
5 4 42
6 0 34
6 1 47
6 2 39
6 3 50
6 4 43
6 5 13
7 0 22
7 1 41
7 2 7
7 3 26
7 4 47
7 5 51
7 6 44
8 0 20
8 1 38
8 2 49
8 3 51
8 4 4
8 5 2
8 6 8
8 7 6
9 0 9
9 1 30
9 2 38
9 3 18
9 4 17
9 5 9
9 6 5
9 7 23
9 8 49
10 0 28
10 1 44
10 2 15
10 3 39
10 4 1
10 5 5
10 6 52
10 7 6
10 8 11
10 9 44
11 0 18
11 1 12
11 2 45
11 3 15
11 4 17
11 5 33
11 6 25
11 7 51
11 8 2
11 9 2
11 10 15
12 0 18
12 1 16
12 2 39
12 3 45
12 4 47
12 5 30
12 6 42
12 7 16
12 8 13
12 9 48
12 10 11
12 11 39
13 0 32
13 1 29
13 2 48
13 3 36
13 4 28
13 5 47
13 6 47
13 7 31
13 8 6
13 9 52
13 10 36
13 11 23
13 12 32
14 0 10
14 1 43
14 2 10
14 3 30
14 4 5
14 5 2
14 6 32
14 7 36
14 8 17
14 9 35
14 10 44
14 11 2
14 12 25
14 13 8
15 0 16
15 1 27
15 2 26
15 3 23
15 4 22
15 5 25
15 6 12
15 7 21
15 8 39
15 9 49
15 10 40
15 11 49
15 12 34
15 13 42
15 14 12
16 0 13
16 1 46
16 2 14
16 3 35
16 4 15
16 5 4
16 6 48
16 7 23
16 8 32
16 9 44
16 10 19
16 11 11
16 12 4
16 13 11
16 14 36
16 15 25
17 0 52
17 1 52
17 2 29
17 3 11
17 4 41
17 5 25
17 6 10
17 7 1
17 8 11
17 9 48
17 10 14
17 11 46
17 12 40
17 13 21
17 14 36
17 15 29
17 16 44
18 0 39
18 1 31
18 2 49
18 3 27
18 4 21
18 5 1
18 6 5
18 7 16
18 8 37
18 9 22
18 10 46
18 11 18
18 12 48
18 13 30
18 14 4
18 15 28
18 16 46
18 17 35
19 0 39
19 1 31
19 2 10
19 3 40
19 4 7
19 5 23
19 6 9
19 7 45
19 8 7
19 9 6
19 10 17
19 11 6
19 12 21
19 13 51
19 14 31
19 15 52
19 16 34
19 17 11
19 18 1
20 0 37
20 1 21
20 2 39
20 3 28
20 4 38
20 5 30
20 6 4
20 7 31
20 8 25
20 9 24
20 10 30
20 11 30
20 12 37
20 13 4
20 14 24
20 15 32
20 16 34
20 17 47
20 18 16
20 19 15
21 0 23
21 1 27
21 2 47
21 3 43
21 4 4
21 5 32
21 6 38
21 7 16
21 8 6
21 9 21
21 10 18
21 11 47
21 12 40
21 13 24
21 14 38
21 15 35
21 16 4
21 17 20
21 18 4
21 19 8
21 20 20
22 0 1
22 1 28
22 2 24
22 3 13
22 4 44
22 5 9
22 6 12
22 7 37
22 8 7
22 9 7
22 10 18
22 11 5
22 12 33
22 13 19
22 14 48
22 15 13
22 16 51
22 17 44
22 18 41
22 19 36
22 20 19
22 21 5
23 0 34
23 1 47
23 2 39
23 3 8
23 4 6
23 5 10
23 6 45
23 7 23
23 8 13
23 9 21
23 10 43
23 11 25
23 12 4
23 13 27
23 14 4
23 15 46
23 16 25
23 17 11
23 18 42
23 19 21
23 20 15
23 21 23
23 22 15
24 0 50
24 1 33
24 2 1
24 3 41
24 4 38
24 5 21
24 6 36
24 7 39
24 8 52
24 9 5
24 10 37
24 11 31
24 12 3
24 13 48
24 14 38
24 15 23
24 16 30
24 17 48
24 18 47
24 19 14
24 20 8
24 21 38
24 22 25
24 23 30
25 0 51
25 1 8
25 2 46
25 3 27
25 4 41
25 5 26
25 6 25
25 7 52
25 8 27
25 9 28
25 10 25
25 11 18
25 12 27
25 13 30
25 14 16
25 15 16
25 16 47
25 17 39
25 18 45
25 19 38
25 20 41
25 21 44
25 22 20
25 23 3
25 24 12
